p cnf 7230 15
-3758 4463 -4467 0
-2062 -3760 -3762 4468 0
2062 -4469 0
3758 -4463 0
-2060 -3764 4464 0
3760 -4469 0
2060 -4467 0
-4468 4469 0
-4466 4467 0
-4465 4466 0
-4464 4465 0
3762 -4469 0
3764 -4467 0
-4462 4463 0
4462 -4463 0
